files/upTests/set-of-sets/0001.eprime.solution
language ESSENCE' 1.0
$ minion Nodes: 27
$ minion TotalTime: 0.003132
$ Savile Row TotalTime: 0.823
letting y_Explicit be [2, 3, 4, 5]
letting x_Explicit_Explicit be [[0, 1, 2, 3], 
[0, 1, 2, 3], 
[0, 1, 2, 3], 
[0, 1, 2, 3], 
[0, 1, 2, 3], 
[2, 3, 4, 5]]
